50
    1   262   274
    2   105    71
    3    66    61
    4   155   158
    5    62    35
    6   284   292
    7    57    60
    8   360   370
    9    49    84
   10   390   389
   11    39     6
   12   478   466
   13   432   419
   14   142   139
   15   392   383
   16    34    27
   17   436   396
   18   376   411
   19   119   128
   20   459   433
   21   201   176
   22   241   254
   23   282   279
   24    53    89
   25   457   407
   26   153   127
   27   405   433
   28   175   126
   29   150   124
   30   451   462
   31    58    96
   32   502   470
   33   371   382
   34    31    16
   35   411   395
   36   263   260
   37   376   423
   38    61    35
   39   195   223
   40     1    17
   41   278   258
   42   397   388
   43   512   489
   44    36    20
   45   418   398
   46   311   345
   47   416   376
   48   272   276
   49   436   438
   50   199   163
6273
